analyze/results_flowersnark/final_miplib_symretope_if_extended_generating_set_cpx_v802__settings_final_nopeek_norelabel_extend_norestarts__1__mspp16.mps.gz.sol
solution status: optimal solution found
objective value:                                  363
C560                                                1 	(obj:11)
C57290                                              1 	(obj:11)
C250277                                             1 	(obj:11)
C650369                                             1 	(obj:11)
C1340702                                            1 	(obj:11)
C2416700                                            1 	(obj:11)
C3986075                                            1 	(obj:11)
C6168827                                            1 	(obj:11)
C9097244                                            1 	(obj:11)
C12915902                                           1 	(obj:11)
C17781665                                           1 	(obj:11)
C23863685                                           1 	(obj:11)
C31343402                                           1 	(obj:11)
C40414544                                           1 	(obj:11)
C51283127                                           1 	(obj:11)
C94016327                                           1 	(obj:11)
C96001295                                           1 	(obj:11)
C96667559                                           1 	(obj:11)
C97336127                                           1 	(obj:11)
C98680175                                           1 	(obj:11)
C350184879                                          1 	(obj:11)
C357848127                                          1 	(obj:11)
C359133399                                          1 	(obj:11)
C360420975                                          1 	(obj:11)
C365594319                                          1 	(obj:11)
C374736375                                          1 	(obj:11)
C378248759                                          1 	(obj:11)
C400572359                                          1 	(obj:11)
C401932127                                          1 	(obj:11)
C403294199                                          1 	(obj:11)
C407394239                                          1 	(obj:11)
C408765527                                          1 	(obj:11)
C418429055                                          1 	(obj:11)
