analyze/results_flowersnark/final_miplib_symretope_if_extended_generating_set_cpx_v802__settings_final_nopeek_norelabel_extend_norestarts__1__mspp16.mps.gz.out
FILENAME:   /home/mcs001/s132664/testsets/IP/miplib2010/mspp16.mps.gz
SETTINGS:   settings_final_nopeek_norelabel_extend_norestarts
TIMELIMIT:  7200
OUTPUTNAME: final_miplib_symretope_if_extended_generating_set_cpx_v802__settings_final_nopeek_norelabel_extend_norestarts__1__
BINNAME:    bin/sbcs.linux.x86_64.gnu.opt.cpx
BASENAME:   mspp16.mps.gz
SEED:       1
@01 /home/mcs001/s132664/testsets/IP/miplib2010/mspp16.mps.gz ===========
@02 mspp16.mps.gz
@03 1686651906
SCIP version 8.0.2 [precision: 8 byte] [memory: block] [mode: optimized] [LP solver: CPLEX 20.1.0.0] [GitHash: 5f0473c]
Copyright (C) 2002-2022 Konrad-Zuse-Zentrum fuer Informationstechnik Berlin (ZIB)

Symretope propagation methods - (c) Jasper van Doornmalen, Christopher Hojny.
[GitHash: 2fd0484]

reading parameter file <../settings/settings_final_nopeek_norelabel_extend_norestarts.set> ...

Changed settings:
limits/time = 7200
limits/restarts = 0
misc/usesymmetry = 1
randomization/randomseedshift = 1
constraints/orbisack/sepafreq = -1
constraints/symresack/sepafreq = -1
propagating/symmetry/addsymresacks = TRUE
propagating/symmetry/detectsubgroups = FALSE
propagating/symmetry/relabelsymretopes = 0
propagating/symmetry/extendgenerators = TRUE
propagating/symmetry/ofsymcomptiming = 0
constraints/symretope/sepafreq = -1
constraints/symretope/peek = FALSE


solving problem ...

original problem has 29280 variables (29280 bin, 0 int, 0 impl, 0 cont) and 561657 constraints
presolving:
(round 1, fast)       25215 del vars, 36781 del conss, 0 add conss, 25215 chg bounds, 991 chg sides, 0 chg coeffs, 0 upgd conss, 0 impls, 1726 clqs
(round 2, exhaustive) 25215 del vars, 36843 del conss, 0 add conss, 25215 chg bounds, 991 chg sides, 0 chg coeffs, 524798 upgd conss, 0 impls, 1726 clqs
(round 3, medium)     25215 del vars, 37053 del conss, 210 add conss, 25215 chg bounds, 1201 chg sides, 3360 chg coeffs, 524798 upgd conss, 0 impls, 1935 clqs
   (55.9s) sparsify aborted: 480/27555495 (0.0%) nonzeros canceled - in total 480 canceled nonzeros, 480 changed coefficients, 0 added nonzeros
   (70.8s) probing: 51/4065 (1.3%) - 0 fixings, 0 aggregations, 0 implications, 0 bound changes
   (70.8s) probing aborted: 50/50 successive totally useless probings
   (76.9s) symmetry computation started: requiring (bin +, int +, cont +), (fixed: bin -, int -, cont -)
   (238.5s) symmetry computation finished: 39 generators found (max: 1500, log10 of symmetry group size: 34.3)
(round 4, exhaustive) 25215 del vars, 37053 del conss, 638 add conss, 25215 chg bounds, 1201 chg sides, 4080 chg coeffs, 524798 upgd conss, 0 impls, 1935 clqs
presolving (5 rounds: 5 fast, 4 medium, 3 exhaustive):
 25215 deleted vars, 37053 deleted constraints, 638 added constraints, 25215 tightened bounds, 0 added holes, 1217 changed sides, 4320 changed coefficients
 0 implications, 1935 cliques
presolved problem has 4065 variables (4065 bin, 0 int, 0 impl, 0 cont) and 525242 constraints
 522878 constraints of type <knapsack>
   1936 constraints of type <setppc>
    391 constraints of type <orbisack>
     37 constraints of type <symretope>
transformed objective value is always integral (scale: 11)
Presolving Time: 235.84

 time | node  | left  |LP iter|LP it/n|mem/heur|mdpt |vars |cons |rows |cuts |sepa|confs|strbr|  dualbound   | primalbound  |  gap   | compl. 
  363s|     1 |     0 |    14 |     - |    13G |   0 |4065 | 525k| 525k|   0 |  0 |  42 |   0 | 3.410000e+02 |      --      |    Inf | unknown
  467s|     1 |     0 |   160 |     - |    13G |   0 |4065 | 525k| 525k|   3 |  1 |  42 |   0 | 3.410000e+02 |      --      |    Inf | unknown
r 467s|     1 |     0 |   160 |     - |shifting|   0 |4065 | 525k| 525k|   3 |  1 |  42 |   0 | 3.410000e+02 | 3.740000e+02 |   9.68%| unknown
  471s|     1 |     0 |   180 |     - |    13G |   0 |4065 | 525k| 525k|   7 |  2 |  42 |   0 | 3.410000e+02 | 3.740000e+02 |   9.68%| unknown
  477s|     1 |     0 |   212 |     - |    13G |   0 |4065 | 525k| 525k|  15 |  3 |  43 |   0 | 3.410000e+02 | 3.740000e+02 |   9.68%| unknown
  481s|     1 |     0 |   251 |     - |    13G |   0 |4065 | 525k| 525k|  23 |  4 |  44 |   0 | 3.410000e+02 | 3.740000e+02 |   9.68%| unknown
  487s|     1 |     0 |   281 |     - |    13G |   0 |4065 | 525k| 525k|  31 |  5 |  44 |   0 | 3.410000e+02 | 3.740000e+02 |   9.68%| unknown
  490s|     1 |     0 |   333 |     - |    13G |   0 |4065 | 525k| 525k|  39 |  6 |  46 |   0 | 3.410000e+02 | 3.740000e+02 |   9.68%| unknown
  495s|     1 |     0 |   371 |     - |    13G |   0 |4065 | 525k| 525k|  49 |  7 |  47 |   0 | 3.410000e+02 | 3.740000e+02 |   9.68%| unknown
  501s|     1 |     0 |   411 |     - |    14G |   0 |4065 | 525k| 525k|  56 |  8 |  47 |   0 | 3.410000e+02 | 3.740000e+02 |   9.68%| unknown
  505s|     1 |     0 |   451 |     - |    14G |   0 |4065 | 525k| 525k|  63 |  9 |  49 |   0 | 3.410000e+02 | 3.740000e+02 |   9.68%| unknown
  516s|     1 |     0 |   494 |     - |    14G |   0 |4065 | 525k| 524k|  73 | 10 |  51 |   0 | 3.410000e+02 | 3.740000e+02 |   9.68%| unknown
  520s|     1 |     0 |   537 |     - |    14G |   0 |4065 | 525k| 524k|  83 | 11 |  54 |   0 | 3.410000e+02 | 3.740000e+02 |   9.68%| unknown
  684s|     1 |     0 |   652 |     - |    14G |   0 |4065 | 525k| 524k|  83 | 11 |  69 |  27 | 3.410000e+02 | 3.740000e+02 |   9.68%| unknown
  697s|     1 |     0 |   758 |     - |    14G |   0 |4065 | 525k| 524k|  87 | 12 |  69 |  27 | 3.410000e+02 | 3.740000e+02 |   9.68%| unknown
 time | node  | left  |LP iter|LP it/n|mem/heur|mdpt |vars |cons |rows |cuts |sepa|confs|strbr|  dualbound   | primalbound  |  gap   | compl. 
  763s|     1 |     2 |   758 |     - |    14G |   0 |4065 | 525k| 524k|  87 | 13 |  69 |  38 | 3.410000e+02 | 3.740000e+02 |   9.68%| unknown
* 844s|     3 |     2 |   787 |  53.0 |strongbr|   2 |4065 | 525k| 524k|  87 |  2 |  69 |  48 | 3.410000e+02 | 3.630000e+02 |   6.45%| unknown

SCIP Status        : problem is solved [optimal solution found]
Solving Time (sec) : 1517.96
Solving Nodes      : 9
Primal Bound       : +3.63000000000000e+02 (7 solutions)
Dual Bound         : +3.63000000000000e+02
Gap                : 0.00 %
SCIP Status        : problem is solved [optimal solution found]
Total Time         :    1554.83
  solving          :    1517.96
  presolving       :     235.84 (included in solving)
  reading          :      36.87
  copying          :       4.75 (2 #copies) (minimal 2.33, maximal 2.43, average 2.38)
Original Problem   :
  Problem name     : mspp16
  Variables        : 29280 (29280 binary, 0 integer, 0 implicit integer, 0 continuous)
  Constraints      : 561657 initial, 561657 maximal
  Objective        : minimize, 4065 non-zeros (abs.min = 11, abs.max = 11)
Presolved Problem  :
  Problem name     : t_mspp16
  Variables        : 4065 (4065 binary, 0 integer, 0 implicit integer, 0 continuous)
  Constraints      : 525242 initial, 525421 maximal
  Objective        : minimize, 3585 non-zeros (abs.min = 1, abs.max = 1)
  Nonzeros         : 28060559 constraint, 11248 clique table
Presolvers         :   ExecTime  SetupTime  Calls  FixedVars   AggrVars   ChgTypes  ChgBounds   AddHoles    DelCons    AddCons   ChgSides   ChgCoefs
  boundshift       :       0.00       0.00      0          0          0          0          0          0          0          0          0          0
  convertinttobin  :       0.00       0.00      0          0          0          0          0          0          0          0          0          0
  domcol           :       2.81       0.00      2          0          0          0          0          0          0          0          0          0
  dualagg          :       0.00       0.00      0          0          0          0          0          0          0          0          0          0
  dualcomp         :       0.00       0.00      0          0          0          0          0          0          0          0          0          0
  dualinfer        :       0.00       0.00      0          0          0          0          0          0          0          0          0          0
  dualsparsify     :       6.05       0.00      1          0          0          0          0          0          0          0          0          0
  gateextraction   :       0.00       0.00      0          0          0          0          0          0          0          0          0          0
  implics          :       0.00       0.00      4          0          0          0          0          0          0          0          0          0
  inttobinary      :       0.00       0.00      0          0          0          0          0          0          0          0          0          0
  qpkktref         :       0.00       0.00      0          0          0          0          0          0          0          0          0          0
  redvub           :       0.00       0.00      0          0          0          0          0          0          0          0          0          0
  sparsify         :       4.49       0.00      2          0          0          0          0          0          0          0          0        480
  stuffing         :       0.00       0.00      0          0          0          0          0          0          0          0          0          0
  trivial          :       0.00       0.00      5          0          0          0          0          0          0          0          0          0
  tworowbnd        :       0.00       0.00      0          0          0          0          0          0          0          0          0          0
  dualfix          :       0.00       0.00      5          0          0          0          0          0          0          0          0          0
  genvbounds       :       0.00       0.00      0          0          0          0          0          0          0          0          0          0
  probing          :      14.94       0.00      1          0          0          0          0          0          0          0          0          0
  pseudoobj        :       0.00       0.00      0          0          0          0          0          0          0          0          0          0
  symmetry         :     161.75       0.00      1          0          0          0          0          0          0        428          0          0
  vbounds          :       0.00       0.00      2          0          0          0          0          0          0          0          0          0
  knapsack         :      25.92       0.26      8          0          0          0          0          0        210        210        210       3840
  setppc           :       0.01       0.00      8          0          0          0          0          0          0          0          0          0
  linear           :      14.11       5.32      8      25215          0          0      25215          0      36843          0       1007          0
  orbisack         :       0.00       0.00      1          0          0          0          0          0          0          0          0          0
  symretope        :       0.00       0.00      1          0          0          0          0          0          0          0          0          0
  logicor          :       0.00       0.00      0          0          0          0          0          0          0          0          0          0
  benders          :       0.00       0.00      0          0          0          0          0          0          0          0          0          0
  components       :       2.52       0.00      1          0          0          0          0          0          0          0          0          0
  root node        :          -          -      -       3987          -          -       3987          -          -          -          -          -
Constraints        :     Number  MaxNumber  #Separate #Propagate    #EnfoLP    #EnfoRelax  #EnfoPS    #Check   #ResProp    Cutoffs    DomReds       Cuts    Applied      Conss   Children
  benderslp        :          0          0          0          0         74          0          0         21          0          0          0          0          0          0          0
  integral         :          0          0          0          0         74          0          0         21          0          1        296          0          0        300          8
  knapsack         :     522878     522878         12       5665          0          0          0         16       1546         23       2686        154         14          0          0
  setppc           :       1936+      2045         12       5642          0          0          0          8       2037          8        823          5          0          0          0
  linear           :          0+         7          0        171          0          0          0          0         25         19         29          0          0          0          0
  orbisack         :        391        391          0        154          0          0          0          7       3758         44          9          0          0          0          0
  symretope        :         37         37          0        240          0          0          0          7        175          5          4          0          0          0          0
  logicor          :          0+        96         12        418          0          0          0          0          8          3          6         10          5          0          0
  benders          :          0          0          0          0          0          0          0          8          0          0          0          0          0          0          0
  countsols        :          0          0          0          0          0          0          0          8          0          0          0          0          0          0          0
  components       :          0          0          0          0          0          0          0          0          0          0          0          0          0          0          0
Constraint Timings :  TotalTime  SetupTime   Separate  Propagate     EnfoLP     EnfoPS     EnfoRelax   Check    ResProp    SB-Prop
  benderslp        :       0.00       0.00       0.00       0.00       0.00       0.00       0.00       0.00       0.00       0.00
  integral         :     840.90       0.00       0.00       0.00     840.90       0.00       0.00       0.01       0.00       0.00
  knapsack         :     103.37       0.26      12.66      57.64       0.00       0.00       0.00       3.80       0.00      29.00
  setppc           :      28.15       0.00       0.00      12.52       0.00       0.00       0.00       0.00       0.00      15.63
  linear           :       5.55       5.32       0.00       0.10       0.00       0.00       0.00       0.00       0.00       0.13
  orbisack         :       8.69       0.00       0.00       7.06       0.00       0.00       0.00       0.00       0.06       1.57
  symretope        :       0.30       0.00       0.00       0.20       0.00       0.00       0.00       0.00       0.00       0.10
  logicor          :       0.26       0.00       0.00       0.02       0.00       0.00       0.00       0.00       0.00       0.24
  benders          :       0.00       0.00       0.00       0.00       0.00       0.00       0.00       0.00       0.00       0.00
  countsols        :       0.00       0.00       0.00       0.00       0.00       0.00       0.00       0.00       0.00       0.00
  components       :       0.00       0.00       0.00       0.00       0.00       0.00       0.00       0.00       0.00       0.00
Propagators        : #Propagate   #ResProp    Cutoffs    DomReds
  dualfix          :          3          0          0          0
  genvbounds       :          0          0          0          0
  nlobbt           :          0          0          0          0
  obbt             :          0          0          0          0
  probing          :          0          0          0          0
  pseudoobj        :        213          0          0          0
  redcost          :        170          0          0      15154
  rootredcost      :          2          0          0          0
  symmetry         :          0          0          0          0
  vbounds          :        629          0          0          0
Propagator Timings :  TotalTime  SetupTime   Presolve  Propagate    ResProp    SB-Prop
  dualfix          :       0.00       0.00       0.00       0.00       0.00       0.00
  genvbounds       :       0.00       0.00       0.00       0.00       0.00       0.00
  nlobbt           :       0.00       0.00       0.00       0.00       0.00       0.00
  obbt             :       0.00       0.00       0.00       0.00       0.00       0.00
  probing          :      14.94       0.00      14.94       0.00       0.00       0.00
  pseudoobj        :       0.01       0.00       0.00       0.01       0.00       0.00
  redcost          :      46.61       0.00       0.00      46.61       0.00       0.00
  rootredcost      :       0.00       0.00       0.00       0.00       0.00       0.00
  symmetry         :     161.75       0.00     161.75       0.00       0.00       0.00
  vbounds          :       0.01       0.00       0.00       0.00       0.00       0.00
Orbital fixing     :
  vars fixed to 0  :          0
  vars fixed to 1  :          0
Conflict Analysis  :       Time      Calls    Success    DomReds  Conflicts   Literals    Reconvs ReconvLits   Dualrays   Nonzeros   LP Iters   (pool size: [10000,10000])
  propagation      :       0.08         72         60          -        194      646.4         11        4.2          -          -          -
  infeasible LP    :       0.02          5          7          -          8        1.4          0        0.0          5        1.6          0
  bound exceed. LP :     281.65        253        335          -        468        7.8          2        6.0         89        3.6       1171
  strong branching :       0.00          0          0          -          0        0.0          0        0.0          -          -          0
  pseudo solution  :       0.00          0          0          -          0        0.0          0        0.0          -          -          -
  applied globally :       0.01          -          -         84        392       12.3          -          -         94          -          -
  applied locally  :          -          -          -          0          0        0.0          -          -          0          -          -
Separators         :   ExecTime  SetupTime      Calls  RootCalls    Cutoffs    DomReds  FoundCuts ViaPoolAdd  DirectAdd    Applied ViaPoolApp  DirectApp      Conss
  cut pool         :       0.00          -         24         24          -          -        656        213          -          -          -          -          -    (maximal pool size:        656)
  aggregation      :       1.82       0.00         12         12          0          0        133        111          0         55         55          0          0
  > cmir           :          -          -          -          -          -          -          -         30          0         26         26          0          -
  > flowcover      :          -          -          -          -          -          -          -         42          0          1          1          0          -
  > knapsackcover  :          -          -          -          -          -          -          -         39          0         28         28          0          -
  cgmip            :       0.00       0.00          0          0          0          0          0          0          0          0          0          0          0
  clique           :       0.02       0.00         12         12          0          0          0          0          0          0          0          0          0
  closecuts        :       0.00       0.00          0          0          0          0          0          0          0          0          0          0          0
  convexproj       :       0.00       0.00          0          0          0          0          0          0          0          0          0          0          0
  disjunctive      :       0.00       0.00          0          0          0          0          0          0          0          0          0          0          0
  eccuts           :       0.00       0.00          0          0          0          0          0          0          0          0          0          0          0
  gauge            :       0.00       0.00          0          0          0          0          0          0          0          0          0          0          0
  gomory           :       4.55       0.00         10         10          0          0        501         88          0          7          7          0          0
  > gomorymi       :          -          -          -          -          -          -          -         55          0          1          1          0          -
  > strongcg       :          -          -          -          -          -          -          -         33          0          6          6          0          -
  impliedbounds    :       7.38       0.00         12         12          0          0          5          5          0          5          5          0          0
  interminor       :       0.00       0.00          0          0          0          0          0          0          0          0          0          0          0
  intobj           :       0.00       0.00          0          0          0          0          0          0          0          0          0          0          0
  mcf              :       0.00       0.00          0          0          0          0          0          0          0          0          0          0          0
  minor            :       0.00       0.00          0          0          0          0          0          0          0          0          0          0          0
  mixing           :       0.00       0.00          0          0          0          0          0          0          0          0          0          0          0
  oddcycle         :       0.00       0.00          0          0          0          0          0          0          0          0          0          0          0
  rapidlearning    :       0.19       0.00          0          0          0          0          0          0          0          0          0          0          0
  rlt              :       0.00       0.00         10         10          0          0          0          0          0          0          0          0          0
  zerohalf         :       0.41       0.00         12         12          0          0         17          9          0          1          1          0          0
Cutselectors       :   ExecTime  SetupTime      Calls  RootCalls   Selected     Forced   Filtered  RootSelec   RootForc   RootFilt 
  hybrid           :       0.00       0.00         12         12         87          0        295         87          0        295
Pricers            :   ExecTime  SetupTime      Calls       Vars
  problem variables:       0.00          -          0          0
Branching Rules    :   ExecTime  SetupTime   BranchLP  BranchExt   BranchPS    Cutoffs    DomReds       Cuts      Conss   Children
  allfullstrong    :       0.00       0.00          0          0          0          0          0          0          0          0
  cloud            :       0.00       0.00          0          0          0          0          0          0          0          0
  distribution     :       0.00       0.00          0          0          0          0          0          0          0          0
  fullstrong       :       0.00       0.00          0          0          0          0          0          0          0          0
  inference        :       0.00       0.00          0          0          0          0          0          0          0          0
  leastinf         :       0.00       0.00          0          0          0          0          0          0          0          0
  lookahead        :       0.00       0.00          0          0          0          0          0          0          0          0
  mostinf          :       0.00       0.00          0          0          0          0          0          0          0          0
  multaggr         :       0.00       0.00          0          0          0          0          0          0          0          0
  nodereopt        :       0.00       0.00          0          0          0          0          0          0          0          0
  pscost           :       0.00       0.00          0          0          0          0          0          0          0          0
  random           :       0.00       0.00          0          0          0          0          0          0          0          0
  relpscost        :     840.90       0.00         74          0          0          1        296          0        300          8
  vanillafullstrong:       0.00       0.00          0          0          0          0          0          0          0          0
Primal Heuristics  :   ExecTime  SetupTime      Calls      Found       Best
  LP solutions     :       0.00          -          -          0          0
  relax solutions  :       0.00          -          -          0          0
  pseudo solutions :       0.00          -          -          0          0
  strong branching :       0.03          -          -          1          1
  actconsdiving    :       0.00       0.00          0          0          0
  adaptivediving   :       0.00       0.00          0          0          0
  alns             :       7.07       0.00          1          0          0
  bound            :       0.00       0.00          0          0          0
  clique           :      27.21       0.00          1          0          0
  coefdiving       :       0.00       0.00          0          0          0
  completesol      :       0.00       0.00          0          0          0
  conflictdiving   :       6.30       0.00          1          0          0
  crossover        :       0.00       0.00          0          0          0
  dins             :       0.00       0.00          0          0          0
  distributiondivin:       0.00       0.00          0          0          0
  dps              :       0.00       0.00          0          0          0
  dualval          :       0.00       0.00          0          0          0
  farkasdiving     :       0.00       0.00          0          0          0
  feaspump         :      97.46       0.00          1          0          0
  fixandinfer      :       0.00       0.00          0          0          0
  fracdiving       :       0.00       0.00          0          0          0
  gins             :       0.00       0.00          0          0          0
  guideddiving     :       0.00       0.00          0          0          0
  indicator        :       0.00       0.00          0          0          0
  intdiving        :       0.00       0.00          0          0          0
  intshifting      :       0.00       0.00          0          0          0
  linesearchdiving :       0.00       0.00          0          0          0
  localbranching   :       0.00       0.00          0          0          0
  locks            :      30.18       0.00          1          0          0
  lpface           :       0.00       0.00          0          0          0
  mpec             :       0.00       0.00          0          0          0
  multistart       :       0.00       0.00          0          0          0
  mutation         :       0.00       0.00          0          0          0
  nlpdiving        :       0.00       0.00          0          0          0
  objpscostdiving  :       0.00       0.00          0          0          0
  octane           :       0.00       0.00          0          0          0
  ofins            :       0.00       0.00          0          0          0
  oneopt           :       0.83       0.00          2          0          0
  padm             :       0.00       0.00          0          0          0
  proximity        :       0.00       0.00          0          0          0
  pscostdiving     :       0.00       0.00          0          0          0
  randrounding     :       7.07       0.00         14          0          0
  rens             :       3.58       0.00          1          0          0
  reoptsols        :       0.00       0.00          0          0          0
  repair           :       0.00       0.00          0          0          0
  rins             :       0.00       0.00          0          0          0
  rootsoldiving    :       0.00       0.00          0          0          0
  rounding         :       2.23       0.00         86          0          0
  shiftandpropagate:      18.47       0.00          1          0          0
  shifting         :       3.56       0.00         14          6          1
  simplerounding   :       0.00       0.00          0          0          0
  subnlp           :       0.00       0.00          0          0          0
  trivial          :       0.43       0.00          2          0          0
  trivialnegation  :       0.00       0.00          0          0          0
  trustregion      :       0.00       0.00          0          0          0
  trysol           :       0.00       0.00          0          0          0
  twoopt           :       0.00       0.00          0          0          0
  undercover       :       0.00       0.00          0          0          0
  vbounds          :      14.01       0.00          1          0          0
  veclendiving     :       0.00       0.00          0          0          0
  zeroobj          :       0.00       0.00          0          0          0
  zirounding       :       0.10       0.00          4          0          0
  other solutions  :          -          -          -          0          -
LP                 :       Time      Calls Iterations  Iter/call   Iter/sec  Time-0-It Calls-0-It    ItLimit
  primal LP        :      13.96          2          0       0.00       0.00      13.96          2
  dual LP          :     107.18         96       1511      17.78      14.10       2.41         11
  lex dual LP      :       0.00          0          0       0.00          -
  barrier LP       :       0.00          0          0       0.00          -       0.00          0
  resolve instable :       0.00          0          0       0.00          -
  diving/probing LP:     131.85         29        265       9.14       2.01
  strong branching :     437.30        406       7507      18.49      17.17          -          -          0
    (at root node) :          -         38       3174      83.53          -
  conflict analysis:     278.75        119       1171       9.84       4.20
B&B Tree           :
  number of runs   :          1
  nodes            :          9 (4 internal, 5 leaves)
  feasible leaves  :          0
  infeas. leaves   :          4
  objective leaves :          1
  nodes (total)    :          9 (4 internal, 5 leaves)
  nodes left       :          0
  max depth        :          3
  max depth (total):          3
  backtracks       :          1 (11.1%)
  early backtracks :          0 (0.0%)
  nodes exc. ref.  :          0 (0.0%)
  delayed cutoffs  :          0
  repropagations   :          4 (8 domain reductions, 0 cutoffs)
  avg switch length:       2.44
  switching time   :       7.90
Root Node          :
  First LP value   : +3.41000000000000e+02
  First LP Iters   :         14 (0.48 Iter/sec)
  First LP Time    :      29.19
  Final Dual Bound : +3.41000000000000e+02
  Final Root Iters :        681
  Root LP Estimate : +3.41846960771500e+02
Solution           :
  Solutions found  :          7 (2 improvements)
  First Solution   : +3.74000000000000e+02   (in run 1, after 1 nodes, 466.76 seconds, depth 0, found by <shifting>)
  Gap First Sol.   :       9.68 %
  Gap Last Sol.    :       6.45 %
  Primal Bound     : +3.63000000000000e+02   (in run 1, after 3 nodes, 844.36 seconds, depth 4, found by <relaxation>)
  Dual Bound       : +3.63000000000000e+02
  Gap              :       0.00 %
Integrals          :      Total       Avg%
  primal-dual      :   54053.12      35.61
  primal-ref       :          -          - (not evaluated)
  dual-ref         :          -          - (not evaluated)
written solution information to file <results/final_miplib_symretope_if_extended_generating_set_cpx_v802__settings_final_nopeek_norelabel_extend_norestarts__1__mspp16.mps.gz.sol>
@04 1686653479
